ROUTE 0: 18 168 67 60 184 119 191 71 48 178 200 78 57 150 133 90 141 11 123 142 66 64 84 157 166 17 16 174 89 58 173 5 22 55 156 7 114 187 24 136 50 126 46 85 153 169 154 86 99 171
ROUTE 1: 23 41 131 199 56 116 47 61 77 65 118 139 143 31 132 195 15 88 103 43 152 92 19 120 81 172 51 59 37 29 147 160 125 129 9 49 158 111 113 82 106 149 188 108 76 182 54 110 87 25 53 148 163
ROUTE 2: 164 181 183 73 91 79 161 26 8 45 151 95 128 194 197 167 44 32 40 6 27 193 146 21 68 124 138 38 196 145 102 75 69 186 122 107 13 159 101 185 42 112 127 96
ROUTE 3: 74 34 4 100 36 192 33 62 179 162 137 117 35 177 134 94 104 63 3 165 135 170 144 70 180 14 98 176 105 130 198 10 93 121 189 83 20 30 109 12 2 190 28 97 52 175 155 140 1 72 39 115 80
FINAL_COST: 3149.12
